s td 22 77 131
b 1 1 3 7 9 10 13 15 17 18 19 21 23 26 28 30 31 32 33 35 36 37 38 42 44 45 46 47 49 50 51 52 53 54 56 57 58 59 61 63 64 65 66 67 70 71 72 73 75 76 78 79 81 82 83 84 87 88 89 91 93 94 95 100 103 104 106 111 112 116 117 118 120 121 122 124 126 128
b 2 2 6 11 12 16 20 22 24 27 29 34 37 40 41 43 48 60 62 69 77 85 86 90 92 96 97 98 99 102 107 108 109 113 115 119 123 124 125 129 130 131
b 3 4 5 6 8 11 14 25 29 39 40 43 48 55 60 68 74 77 80 85 95 101 105 108 110 113 124 127
b 4 6 11 29 40 43 48 60 77 85 96 108 113 114 124
b 5 24 37 53 54 61 75 84 88 93 95 118 124
b 6 24 37 53 54 61 84 88 95 96 118 124
b 7 14 24 37 54 61 84 88 95 96 124
b 8 14 24 37 61 74 84 88 95 96 124
b 9 2 12 14 24 34 37 61 62 74 84 92 95 96 97 99 107 115 124 129 130
b 10 2 6 11 12 14 24 29 34 37 40 43 48 60 61 62 74 77 85 92 95 96 97 99 107 108 113 115 124 129 130
b 11 2 6 11 12 14 29 34 40 43 48 60 61 62 74 77 85 92 95 96 97 99 107 108 113 115 124 129 130
b 12 2 6 11 12 14 29 34 40 43 48 60 61 62 74 77 85 92 95 97 99 107 108 113 115 124 127 129 130
b 13 2 6 11 12 14 29 40 43 48 60 61 62 74 77 85 92 95 97 99 107 108 110 113 115 124 127 129 130
b 14 2 6 11 12 14 29 40 43 48 60 61 62 74 77 85 95 97 99 105 107 108 110 113 115 124 127 129 130
b 15 2 6 11 12 14 29 40 43 48 60 61 62 74 77 85 95 97 101 105 107 108 110 113 115 124 127 129 130
b 16 2 6 11 12 14 29 40 43 48 60 61 74 77 80 85 95 97 101 105 107 108 110 113 115 124 127 129 130
b 17 2 6 11 12 14 29 40 43 48 60 61 68 74 77 80 85 95 97 101 105 108 110 113 115 124 127 129 130
b 18 2 6 11 14 29 40 43 48 55 60 61 68 74 77 80 85 95 97 101 105 108 110 113 115 124 127 129 130
b 19 2 6 11 14 25 29 40 43 48 55 60 61 68 74 77 80 85 95 97 101 105 108 110 113 124 127 129 130
b 20 6 8 11 14 25 29 40 43 48 55 60 61 68 74 77 80 85 95 97 101 105 108 110 113 124 127 129 130
b 21 5 6 8 11 14 25 29 40 43 48 55 60 61 68 74 77 80 85 95 97 101 105 108 110 113 124 127 129
b 22 4 5 6 8 11 14 25 29 40 43 48 55 60 61 68 74 77 80 85 95 97 101 105 108 110 113 124 127
1 5
2 10
3 22
4 10
5 6
6 7
7 8
8 9
9 10
10 11
11 12
12 13
13 14
14 15
15 16
16 17
17 18
18 19
19 20
20 21
21 22
